12 48 3 10
2 18 19 12 3 9 7 6 5 13 20 8 20 4 12 7 20 16 17 7 6 6 11 14 13 19 14 6 17 6 9 17 20 8 16 17 11 4 13 9 20 1 10 4 12 8 12 3 
12.19 9.23 0.82 9.25 12.85 12.97 6.01 3.36 10.31 3 14.01 6.6 11.22 7.76 5.06 1.16 8.34 8.32 14.3 15.81 2.46 4.94 5.75 3.93 10.76 4.75 9.32 8.17 15.67 14.42 11.98 1.16 7.17 4.35 4.88 4.35 5.34 5.92 7.45 9.87 8.5 7.47 2.94 2.1 0.88 5.85 2.74 13.73 
1.16 8.2 5.31 2.79 15.55 3.73 8.41 2.61 0.41 0.08 13.39 11.41 7.06 10.7 3.66 10.71 0.74 12.64 12.4 2.36 1.86 12.65 7.38 6.81 12.98 12.65 7.35 4.56 9.97 12.29 10.86 1.16 13.39 4.75 9.38 3.95 6.25 9.49 1.74 6.96 14.68 6 15.78 12.59 4.14 12.13 7.5 3.81 
2.49 15.59 0.94 8.9 7.14 3.65 15.47 2.51 8.39 9.14 5.61 0.8 12.86 3.98 1.73 8.45 1.35 1.86 12.07 2.25 11.71 4.03 6.54 4.18 11.65 15.44 9.75 6.31 13.92 15.85 9.56 1.65 10.29 15.55 3.18 12.88 6.73 8.21 3.64 8.95 8.9 2.21 12.91 0.3 11.88 2.2 11.31 5.45 
8 8 8 8 8 8 8 8 8 8 8 8 8 8 8 8 8 8 8 8 8 8 8 8 8 8 8 8 8 8 8 8 8 8 8 8 8 8 8 8 8 8 8 8 8 8 8 8 
14.24 15.97 7.25 5.93 11.58 2.51 4.68 8.06 12 8.23 2.2 2.08 7.64 8.03 11.71 15.59 0.57 0.55 3.4 9.44 6.2 11.44 7.62 10.57 2.29 12.91 14.8 2.37 12.92 15.47 14.97 2.27 9.18 3.58 7.74 9.74 5.94 14.6 6.19 3.24 5.63 1.35 15.27 4.95 3.1 7.94 15.55 15.58 
12.42 5.03 7.26 0.23 2.65 8.34 2.51 2.81 5.14 12.18 4.18 0.73 14.95 14.66 13.52 13.66 15.87 0.74 3.74 15.79 4.7 15.19 4.81 5.63 7.98 7.86 0.62 15.53 13 5.42 14.99 10.74 2.47 3.94 3.5 3.57 1.72 12.13 10.39 6.92 7.59 6.45 7.01 3.61 5.98 8.26 0.83 4.05 
13.42 13.99 3.82 6.73 1.22 10.63 8.97 9.05 1.64 13.38 3.92 6.67 8.32 3.31 13.2 8.68 15.65 7.79 5.64 8.24 7.03 1.88 2.15 10.71 10.41 13.05 13.88 14.53 8.66 8.79 3.56 11.12 14.76 4.45 7.73 3.59 9.5 1.82 1.93 14.55 0.47 4.73 3.82 4.08 4.08 11.27 0.96 5.29 
6.85 10.11 4.34 2.76 15.07 9.39 6.08 12.95 3.72 11.58 11.54 7.95 0.29 6.16 2.87 7.53 5.89 0.56 10.7 6.36 10.39 3.96 15.09 0.87 4.23 15.08 3.87 3.8 3.42 2.14 1.99 11.57 15.8 15.44 4.41 2.27 11.37 15.84 7.06 8.42 3.28 7.67 0.97 2.84 9.98 1.78 10.69 5.42 
9.08 2.22 8.87 12.44 14.7 5.22 15.19 9.19 8.56 15.53 3.54 5.58 0.36 4.41 6.18 1.27 0.11 14.35 15.5 1.67 12.67 15.8 14.95 2.05 9.5 12.42 14.31 1.13 13.33 14.14 12.36 2.92 15.2 0.33 11.15 15.44 9.97 4.64 6.4 14.79 1.63 0.66 5.84 12.37 2.37 1.79 8.25 7.97 
0.87 5.91 13.08 14.12 10.87 15.79 12.68 11.86 3.08 10.65 4.9 5.14 5.05 6.45 11.08 2.27 2.19 9.04 12 0.43 6.69 10.34 4.5 5.98 9.11 8.49 5.37 12.12 10.95 1.54 12.5 10.09 14.13 0.5 15.3 13.27 13.58 1.33 12.38 10.26 4.02 15.1 5.17 8 12.97 1.19 6.19 1.47 
13.72 10.02 10 8.8 8.42 4.8 3.04 13.03 7.44 10.06 1.95 3.56 14.32 10 1.38 14.8 14.77 3.95 3.26 1.28 3.03 12.85 9.96 5.13 7.99 11.14 14.27 14.87 1.77 11.56 5.33 13.31 7.88 3.14 8.06 7.62 7.53 8.09 1.54 2.81 7.82 5.94 10.46 15.33 12.41 11.25 1.6 15.17 
4.5 0.28 14.41 11.4 1.1 8.72 14.55 13.13 13.21 1.03 2.05 15.46 6.5 4.3 5.79 7.24 7.29 10.94 14.14 3.12 1.94 12 13.44 4.06 1 12.34 15.22 7.26 12.66 1.22 0.85 1.96 1.17 2.61 9.41 14.39 4.55 1.45 14.53 7.56 8.57 15.17 9.95 2.89 8.79 12.55 11.16 3.32 
1 1 1 1 1 1 1 1 1 1 1 1 1 1 1 1 1 1 1 1 1 1 1 1 1 1 1 1 1 1 1 1 1 1 1 1 1 1 1 1 1 1 1 1 1 1 1 1 
1 1 1 1 1 1 1 1 1 1 1 1 1 1 1 1 1 1 1 1 1 1 1 1 1 1 1 1 1 1 1 1 1 1 1 1 1 1 1 1 1 1 1 1 1 1 1 1 
1 1 1 1 1 1 1 1 1 1 1 1 1 1 1 1 1 1 1 1 1 1 1 1 1 1 1 1 1 1 1 1 1 1 1 1 1 1 1 1 1 1 1 1 1 1 1 1 
1 1 1 1 1 1 1 1 1 1 1 1 1 1 1 1 1 1 1 1 1 1 1 1 1 1 1 1 1 1 1 1 1 1 1 1 1 1 1 1 1 1 1 1 1 1 1 1 
1 1 1 1 1 1 1 1 1 1 1 1 1 1 1 1 1 1 1 1 1 1 1 1 1 1 1 1 1 1 1 1 1 1 1 1 1 1 1 1 1 1 1 1 1 1 1 1 
1 1 1 1 1 1 1 1 1 1 1 1 1 1 1 1 1 1 1 1 1 1 1 1 1 1 1 1 1 1 1 1 1 1 1 1 1 1 1 1 1 1 1 1 1 1 1 1 
1 1 1 1 1 1 1 1 1 1 1 1 1 1 1 1 1 1 1 1 1 1 1 1 1 1 1 1 1 1 1 1 1 1 1 1 1 1 1 1 1 1 1 1 1 1 1 1 
1 1 1 1 1 1 1 1 1 1 1 1 1 1 1 1 1 1 1 1 1 1 1 1 1 1 1 1 1 1 1 1 1 1 1 1 1 1 1 1 1 1 1 1 1 1 1 1 
1 1 1 1 1 1 1 1 1 1 1 1 1 1 1 1 1 1 1 1 1 1 1 1 1 1 1 1 1 1 1 1 1 1 1 1 1 1 1 1 1 1 1 1 1 1 1 1 
1 1 1 1 1 1 1 1 1 1 1 1 1 1 1 1 1 1 1 1 1 1 1 1 1 1 1 1 1 1 1 1 1 1 1 1 1 1 1 1 1 1 1 1 1 1 1 1 
1 1 1 1 1 1 1 1 1 1 1 1 1 1 1 1 1 1 1 1 1 1 1 1 1 1 1 1 1 1 1 1 1 1 1 1 1 1 1 1 1 1 1 1 1 1 1 1 
1 1 1 1 1 1 1 1 1 1 1 1 1 1 1 1 1 1 1 1 1 1 1 1 1 1 1 1 1 1 1 1 1 1 1 1 1 1 1 1 1 1 1 1 1 1 1 1 
0.01 0.01 0.01 0.01 0.01 0.01 0.01 0.01 0.01 0.01 0.01 0.01 0.01 0.01 0.01 0.01 0.01 0.01 0.01 0.01 0.01 0.01 0.01 0.01 0.01 0.01 0.01 0.01 0.01 0.01 0.01 0.01 0.01 0.01 0.01 0.01 0.01 0.01 0.01 0.01 0.01 0.01 0.01 0.01 0.01 0.01 0.01 0.01 
0.02 0.02 0.02 0.02 0.02 0.02 0.02 0.02 0.02 0.02 0.02 0.02 0.02 0.02 0.02 0.02 0.02 0.02 0.02 0.02 0.02 0.02 0.02 0.02 0.02 0.02 0.02 0.02 0.02 0.02 0.02 0.02 0.02 0.02 0.02 0.02 0.02 0.02 0.02 0.02 0.02 0.02 0.02 0.02 0.02 0.02 0.02 0.02 
0.03 0.03 0.03 0.03 0.03 0.03 0.03 0.03 0.03 0.03 0.03 0.03 0.03 0.03 0.03 0.03 0.03 0.03 0.03 0.03 0.03 0.03 0.03 0.03 0.03 0.03 0.03 0.03 0.03 0.03 0.03 0.03 0.03 0.03 0.03 0.03 0.03 0.03 0.03 0.03 0.03 0.03 0.03 0.03 0.03 0.03 0.03 0.03 
0.04 0.04 0.04 0.04 0.04 0.04 0.04 0.04 0.04 0.04 0.04 0.04 0.04 0.04 0.04 0.04 0.04 0.04 0.04 0.04 0.04 0.04 0.04 0.04 0.04 0.04 0.04 0.04 0.04 0.04 0.04 0.04 0.04 0.04 0.04 0.04 0.04 0.04 0.04 0.04 0.04 0.04 0.04 0.04 0.04 0.04 0.04 0.04 
0.125 0.125 0.125 0.125 0.125 0.125 0.125 0.125 0.125 0.125 0.125 0.125 0.125 0.125 0.125 0.125 0.125 0.125 0.125 0.125 0.125 0.125 0.125 0.125 0.125 0.125 0.125 0.125 0.125 0.125 0.125 0.125 0.125 0.125 0.125 0.125 0.125 0.125 0.125 0.125 0.125 0.125 0.125 0.125 0.125 0.125 0.125 0.125 
0.25 0.25 0.25 0.25 0.25 0.25 0.25 0.25 0.25 0.25 0.25 0.25 0.25 0.25 0.25 0.25 0.25 0.25 0.25 0.25 0.25 0.25 0.25 0.25 0.25 0.25 0.25 0.25 0.25 0.25 0.25 0.25 0.25 0.25 0.25 0.25 0.25 0.25 0.25 0.25 0.25 0.25 0.25 0.25 0.25 0.25 0.25 0.25 
0.375 0.375 0.375 0.375 0.375 0.375 0.375 0.375 0.375 0.375 0.375 0.375 0.375 0.375 0.375 0.375 0.375 0.375 0.375 0.375 0.375 0.375 0.375 0.375 0.375 0.375 0.375 0.375 0.375 0.375 0.375 0.375 0.375 0.375 0.375 0.375 0.375 0.375 0.375 0.375 0.375 0.375 0.375 0.375 0.375 0.375 0.375 0.375 
0.5 0.5 0.5 0.5 0.5 0.5 0.5 0.5 0.5 0.5 0.5 0.5 0.5 0.5 0.5 0.5 0.5 0.5 0.5 0.5 0.5 0.5 0.5 0.5 0.5 0.5 0.5 0.5 0.5 0.5 0.5 0.5 0.5 0.5 0.5 0.5 0.5 0.5 0.5 0.5 0.5 0.5 0.5 0.5 0.5 0.5 0.5 0.5 
0.625 0.625 0.625 0.625 0.625 0.625 0.625 0.625 0.625 0.625 0.625 0.625 0.625 0.625 0.625 0.625 0.625 0.625 0.625 0.625 0.625 0.625 0.625 0.625 0.625 0.625 0.625 0.625 0.625 0.625 0.625 0.625 0.625 0.625 0.625 0.625 0.625 0.625 0.625 0.625 0.625 0.625 0.625 0.625 0.625 0.625 0.625 0.625 
0.75 0.75 0.75 0.75 0.75 0.75 0.75 0.75 0.75 0.75 0.75 0.75 0.75 0.75 0.75 0.75 0.75 0.75 0.75 0.75 0.75 0.75 0.75 0.75 0.75 0.75 0.75 0.75 0.75 0.75 0.75 0.75 0.75 0.75 0.75 0.75 0.75 0.75 0.75 0.75 0.75 0.75 0.75 0.75 0.75 0.75 0.75 0.75 
0.875 0.875 0.875 0.875 0.875 0.875 0.875 0.875 0.875 0.875 0.875 0.875 0.875 0.875 0.875 0.875 0.875 0.875 0.875 0.875 0.875 0.875 0.875 0.875 0.875 0.875 0.875 0.875 0.875 0.875 0.875 0.875 0.875 0.875 0.875 0.875 0.875 0.875 0.875 0.875 0.875 0.875 0.875 0.875 0.875 0.875 0.875 0.875 
1 1 1 1 1 1 1 1 1 1 1 1 1 1 1 1 1 1 1 1 1 1 1 1 1 1 1 1 1 1 1 1 1 1 1 1 1 1 1 1 1 1 1 1 1 1 1 1 
